Route #1: 8 33 42 16 24 15 19
Route #2: 11 12 35 18 25 44
Route #3: 36 5 39 10 7 22 3 32
Route #4: 38 4 30 2 37
Route #5: 14 26 13 43 6 45 23
Route #6: 9 17
Route #7: 28 41 20 27 1 40 34 31 29 21
Cost 917
Time 0.059842
